n = 26;
lu = [|-521, 446
      |32, 549
      |-85, 564
      |-499, 369
      |28, 128
      |-638, 174
      |-610, -464
      |234, 659
      |-216, 39
      |-501, 343
      |-2, 568
      |183, 434
      |-268, 239
      |-327, -227
      |159, 212
      |396, 476
      |-274, 437
      |-65, 189
      |-107, 372
      |-226, 165
      |291, 380
      |-382, -48
      |-64, 526
      |289, 645
      |137, 589
      |-473, 76|];
